
<<< setup


<<< generate

Version identifier: 22.1.1.0 | 2022-11-28 | 9160aff4d
CPXPARAM_TimeLimit                               1800
CPXPARAM_MIP_Tolerances_MIPGap                   0.01
Tried aggregator 2 times.
MIP Presolve eliminated 185 rows and 4186 columns.
MIP Presolve modified 8372 coefficients.
Aggregator did 16744 substitutions.
Reduced MIP has 25116 rows, 37950 columns, and 75348 nonzeros.
Reduced MIP has 21022 binaries, 184 generals, 0 SOSs, and 16744 indicators.
Presolve time = 0.10 sec. (1192.78 ticks)
Probing fixed 0 vars, tightened 4186 bounds.
Probing time = 0.05 sec. (14.41 ticks)
Tried aggregator 2 times.
MIP Presolve eliminated 8372 rows and 4278 columns.
Aggregator did 4186 substitutions.
Reduced MIP has 12558 rows, 29486 columns, and 46046 nonzeros.
Reduced MIP has 16744 binaries, 4370 generals, 0 SOSs, and 16744 indicators.
Presolve time = 0.05 sec. (54.94 ticks)
Probing time = 0.04 sec. (2.25 ticks)
Tried aggregator 1 time.
Detecting symmetries...
Reduced MIP has 12558 rows, 29486 columns, and 46046 nonzeros.
Reduced MIP has 16744 binaries, 4370 generals, 0 SOSs, and 16744 indicators.
Presolve time = 0.04 sec. (42.85 ticks)
Probing time = 0.04 sec. (2.25 ticks)
Clique table members: 8372.
MIP emphasis: balance optimality and feasibility.
MIP search method: dynamic search.
Parallel mode: deterministic, using up to 8 threads.
Root relaxation solution time = 0.02 sec. (13.49 ticks)

        Nodes                                         Cuts/
   Node  Left     Objective  IInf  Best Integer    Best Bound    ItCnt     Gap

*     0     0      integral     0     5000.0000     5000.0000        0    0.00%
Elapsed time = 0.50 sec. (1573.42 ticks, tree = 0.00 MB, solutions = 1)

Root node processing (before b&c):
  Real time             =    0.51 sec. (1574.49 ticks)
Parallel b&c, 8 threads:
  Real time             =    0.00 sec. (0.00 ticks)
  Sync time (average)   =    0.00 sec.
  Wait time (average)   =    0.00 sec.
                          ------------
Total (root+branch&cut) =    0.51 sec. (1574.49 ticks)

<<< solve


OBJECTIVE: 5000

<<< post process


<<< done

